W = 7;
H = 12;

cost = [| 0,1,2,3,2,1,0
        | 0,1,2,3,2,1,0
        | 0,1,2,3,2,1,0
        | 0,1,2,3,2,1,0
        | 0,0,1,2,1,0,0
        | 0,0,1,2,1,0,0
        | 0,0,1,2,1,0,0
        | 0,0,1,2,1,0,0
        | 0,1,2,3,2,1,0
        | 0,1,2,3,2,1,0
        | 0,1,2,3,2,1,0
        | 0,1,2,3,2,1,0
        |];
reward = [| 4,7,-1,0,0,0,3
          | 0,0,0,0,3,0,4
          | 0,0,4,0,7,0,0
          | 7,0,3,0,-1,-1,0
          | -1,-1,-1,0,3,0,0
          | -1,-1,0,7,0,0,7
          | -1,-1,0,0,0,4,-1
          | -1,4,4,0,0,0,-1
          | -1,0,-1,-1,0,3,0
          | 0,0,3,0,4,-1,-1
          | 3,0,0,0,0,-1,-1
          | 7,0,7,4,-1,-1,-1
          |];

length = 18; 
budget = 18;                  
          